(set-logic QF_S)
(declare-fun V2 () String )
(declare-fun V35 () String )
(declare-fun V58 () String )
(declare-fun V4 () String )
(declare-fun V34 () String )
(declare-fun V0 () String )
(declare-fun V13 () String )
(declare-fun V3 () String )
(declare-fun V55 () String )
(declare-fun V52 () String )
(declare-fun V8 () String )
(declare-fun V49 () String )
(declare-fun V31 () String )
(declare-fun V16 () String )
(declare-fun V9 () String )
(declare-fun V28 () String )
(declare-fun V57 () String )
(declare-fun V50 () String )
(declare-fun V24 () String )
(declare-fun V43 () String )
(declare-fun V29 () String )
(declare-fun V26 () String )
(declare-fun V61 () String )
(declare-fun V38 () String )
(declare-fun V56 () String )
(declare-fun V27 () String )
(declare-fun V36 () String )
(declare-fun V37 () String )
(declare-fun V33 () String )
(declare-fun V54 () String )
(declare-fun V44 () String )
(declare-fun V5 () String )
(declare-fun V14 () String )
(declare-fun V7 () String )
(declare-fun V53 () String )
(declare-fun V20 () String )
(declare-fun V6 () String )
(declare-fun V21 () String )
(declare-fun V22 () String )
(declare-fun V40 () String )
(declare-fun V32 () String )
(declare-fun V17 () String )
(declare-fun V30 () String )
(declare-fun V41 () String )
(declare-fun V46 () String )
(declare-fun V39 () String )
(declare-fun V62 () String )
(declare-fun V42 () String )
(declare-fun V11 () String )
(declare-fun V25 () String )
(declare-fun V19 () String )
(declare-fun V51 () String )
(declare-fun V45 () String )
(declare-fun V15 () String )
(declare-fun V1 () String )
(declare-fun V18 () String )
(declare-fun V12 () String )
(declare-fun V23 () String )
(declare-fun V10 () String )
(assert (= "" "A" ) )
(assert (= "" "U" ) )
(assert (= "A" V9 ) )
(assert (= "I" V14 ) )
(assert (= "O" V0 ) )
(assert (= "U" V15 ) )
(assert (= V39 V28 ) )
(assert (= V46 (str.++ (str.++ V44 "u" ) V45 ) ) )
(assert (= V42 (str.++ (str.++ V44 "U" ) V45 ) ) )
(assert (= V28 (str.++ "i" V39 ) ) )
(assert (= V28 (str.++ (str.++ V57 "i" ) V58 ) ) )
(assert (= V54 V6 ) )
(assert (= V54 (str.++ "o" V6 ) ) )
(assert (= V24 V11 ) )
(assert (= V24 (str.++ "a" V11 ) ) )
(assert (= V24 (str.++ (str.++ V55 "a" ) V56 ) ) )
(assert (= V53 (str.++ "o" V2 ) ) )
(assert (= V53 (str.++ (str.++ V51 "o" ) V52 ) ) )
(assert (= V11 (str.++ (str.++ V55 "A" ) V56 ) ) )
(assert (= V8 (str.++ (str.++ V29 "O" ) V30 ) ) )
(assert (= V8 (str.++ (str.++ V35 V36 ) V37 ) ) )
(assert (= V8 (str.++ (str.++ V5 V6 ) V7 ) ) )
(assert (= V2 (str.++ (str.++ V51 "O" ) V52 ) ) )
(assert (= V13 (str.++ (str.++ V33 "A" ) V34 ) ) )
(assert (= V13 (str.++ (str.++ V18 V19 ) V20 ) ) )
(assert (= V13 (str.++ (str.++ V10 V11 ) V12 ) ) )
(assert (= V4 (str.++ (str.++ V31 "O" ) V32 ) ) )
(assert (= V4 (str.++ (str.++ V16 V8 ) V17 ) ) )
(assert (= V4 (str.++ (str.++ V1 V2 ) V3 ) ) )
(assert (= (str.++ V28 V22 ) (str.++ (str.++ V61 "U" ) V62 ) ) )
(assert (= (str.++ V28 V22 ) (str.++ (str.++ V41 V42 ) V43 ) ) )
(assert (= (str.++ V28 V22 ) (str.++ (str.++ V25 V26 ) V27 ) ) )
(assert (= (str.++ V24 V19 ) (str.++ (str.++ V49 "I" ) V50 ) ) )
(assert (= (str.++ V24 V19 ) (str.++ (str.++ V21 V22 ) V23 ) ) )
(assert (= (str.++ V24 V19 ) (str.++ (str.++ V38 V39 ) V40 ) ) )
( check-sat )
